c This file is generated by oracV2cnf
c Generated on Mon Nov  9 21:31:37 2015
p cnf 11 23
-1 -3 -11 0
1 11 0
3 11 0
-3 -4 -8 0
3 8 0
4 8 0
-2 -8 -10 0
2 10 0
8 10 0
-5 -8 -9 0
5 9 0
8 9 0
-11 -10 -6 0
11 6 0
10 6 0
-9 -9 -7 0
9 7 0
9 7 0
c assign values for PIs:
-1 0
-2 0
3 0
-4 0
-5 0
